243/surrogate_problem/sol/surrogate2_49.sol
# Solution for model problem_
# Objective value = 1.8644209589227921e+05
x(0_0) 0
x(0_1) 0
x(0_2) 0
x(0_3) 0
x(0_4) 0
x(0_5) 0
x(0_6) 1
x(0_7) 0
x(0_8) 0
x(0_9) 0
x(0_10) 0
x(0_11) 0
x(0_12) 0
x(1_13) 0
x(1_14) 0
x(1_15) 0
x(1_16) 0
x(1_17) 0
x(1_18) 0
x(1_19) 0
x(1_20) 0
x(1_21) 0
x(1_22) 0
x(1_23) 0
x(1_24) 0
x(1_25) 0
x(1_26) 0
x(1_27) 0
x(1_28) 1
x(1_29) 0
x(2_30) 0
x(2_31) 0
x(2_32) 0
x(2_33) 0
x(2_34) 1
x(2_35) 0
x(2_36) 0
x(2_37) 0
x(2_38) 0
x(2_39) 0
x(2_40) 0
x(2_41) 0
x(2_42) 0
x(2_43) 0
x(2_44) 0
x(2_45) 0
x(2_46) 0
x(2_47) 0
x(2_48) 0
x(3_49) 0
x(3_50) 1
x(3_51) 0
x(3_52) 0
x(3_53) 0
x(3_54) 0
x(3_55) 0
x(3_56) 0
x(3_57) 0
x(3_58) 0
x(3_59) 0
x(3_60) 0
x(3_61) 0
x(3_62) 0
x(4_63) 0
x(4_64) 0
x(4_65) 0
x(4_66) 0
x(4_67) 0
x(4_68) 0
x(4_69) 0
x(4_70) 0
x(4_71) 1
x(4_72) 0
x(4_73) 0
x(4_74) 0
x(5_75) 0
x(5_76) 1
x(5_77) 0
x(5_78) 0
x(5_79) 0
x(5_80) 0
x(5_81) 0
x(5_82) 0
x(5_83) 0
x(5_84) 0
x(5_85) 0
x(5_86) 0
x(5_87) 0
x(5_88) 0
x(5_89) 0
x(5_90) 0
x(5_91) 0
x(6_92) 0
x(6_93) 0
x(6_94) 0
x(6_95) 0
x(6_96) 0
x(6_97) 0
x(6_98) 1
x(6_99) 0
x(6_100) 0
x(6_101) 0
x(7_102) 0
x(7_103) 0
x(7_104) 0
x(7_105) 0
x(7_106) 0
x(7_107) 0
x(7_108) 0
x(7_109) 0
x(7_110) 0
x(7_111) 0
x(7_112) 1
x(7_113) 0
x(8_114) 0
x(8_115) 1
x(8_116) 0
x(8_117) 0
x(8_118) 0
x(8_119) 0
x(8_120) 0
x(8_121) 0
x(8_122) 0
x(8_123) 0
x(8_124) 0
x(8_125) 0
x(8_126) 0
x(8_127) 0
x(8_128) 0
x(8_129) 0
x(8_130) 0
x(8_131) 0
x(8_132) 0
x(8_133) 0
x(9_134) 0
x(9_135) 0
x(9_136) 0
x(9_137) 0
x(9_138) 1
x(9_139) 0
x(9_140) 0
x(9_141) 0
x(9_142) 0
x(9_143) 0
x(9_144) 0
x(9_145) 0
x(9_146) 0
x(9_147) 0
x(9_148) 0
x(9_149) 0
x(9_150) 0
x(9_151) 0
x(10_152) 0
x(10_153) 0
x(10_154) 0
x(10_155) 1
x(10_156) 0
x(10_157) 0
x(10_158) 0
x(10_159) 0
x(10_160) 0
x(10_161) 0
x(10_162) 0
x(10_163) 0
x(10_164) 0
x(10_165) 0
x(10_166) 0
x(10_167) 0
x(11_168) 0
x(11_169) 0
x(11_170) 0
x(11_171) 0
x(11_172) 0
x(11_173) 1
x(11_174) 0
x(11_175) 0
x(11_176) 0
x(11_177) 0
x(11_178) 0
x(11_179) 0
x(11_180) 0
x(11_181) 0
x(11_182) 0
x(12_183) 0
x(12_184) 0
x(12_185) 0
x(12_186) 0
x(12_187) 0
x(12_188) 0
x(12_189) 0
x(12_190) 0
x(12_191) 0
x(12_192) 0
x(12_193) 0
x(12_194) 1
x(13_195) 0
x(13_196) 0
x(13_197) 0
x(13_198) 0
x(13_199) 0
x(13_200) 0
x(13_201) 0
x(13_202) 0
x(13_203) 0
x(13_204) 0
x(13_205) 0
x(13_206) 1
x(13_207) 0
x(13_208) 0
x(13_209) 0
x(14_210) 0
x(14_211) 0
x(14_212) 0
x(14_213) 0
x(14_214) 0
x(14_215) 1
x(14_216) 0
x(14_217) 0
x(14_218) 0
x(14_219) 0
x(14_220) 0
x(14_221) 0
x(14_222) 0
x(14_223) 0
x(14_224) 0
x(14_225) 0
x(14_226) 0
x(15_227) 0
x(15_228) 0
x(15_229) 0
x(15_230) 0
x(15_231) 0
x(15_232) 0
x(15_233) 0
x(15_234) 0
x(15_235) 0
x(15_236) 0
x(15_237) 0
x(15_238) 1
x(16_239) 0
x(16_240) 0
x(16_241) 0
x(16_242) 0
x(16_243) 0
x(16_244) 0
x(16_245) 0
x(16_246) 0
x(16_247) 0
x(16_248) 0
x(16_249) 0
x(16_250) 0
x(16_251) 0
x(16_252) 0
x(16_253) 0
x(16_254) 0
x(16_255) 1
x(17_256) 0
x(17_257) 0
x(17_258) 0
x(17_259) 0
x(17_260) 0
x(17_261) 1
x(17_262) 0
x(17_263) 0
x(17_264) 0
x(17_265) 0
x(17_266) 0
x(17_267) 0
x(17_268) 0
x(17_269) 0
x(17_270) 0
x(18_271) 0
x(18_272) 0
x(18_273) 0
x(18_274) 0
x(18_275) 0
x(18_276) 0
x(18_277) 0
x(18_278) 0
x(18_279) 0
x(18_280) 0
x(18_281) 0
x(18_282) 0
x(18_283) 0
x(18_284) 1
x(18_285) 0
x(18_286) 0
x(18_287) 0
x(18_288) 0
x(18_289) 0
x(19_290) 0
x(19_291) 0
x(19_292) 0
x(19_293) 0
x(19_294) 0
x(19_295) 0
x(19_296) 0
x(19_297) 0
x(19_298) 0
x(19_299) 1
x(19_300) 0
x(19_301) 0
x(19_302) 0
x(19_303) 0
x(19_304) 0
x(19_305) 0
x(19_306) 0
x(20_307) 0
x(20_308) 0
x(20_309) 0
x(20_310) 0
x(20_311) 0
x(20_312) 0
x(20_313) 0
x(20_314) 0
x(20_315) 0
x(20_316) 0
x(20_317) 0
x(20_318) 0
x(20_319) 1
x(20_320) 0
x(20_321) 0
x(20_322) 0
x(20_323) 0
x(21_324) 0
x(21_325) 0
x(21_326) 0
x(21_327) 0
x(21_328) 0
x(21_329) 0
x(21_330) 0
x(21_331) 0
x(21_332) 0
x(21_333) 1
x(21_334) 0
x(21_335) 0
x(21_336) 0
x(21_337) 0
x(21_338) 0
x(21_339) 0
x(21_340) 0
x(21_341) 0
x(21_342) 0
x(22_343) 0
x(22_344) 0
x(22_345) 0
x(22_346) 0
x(22_347) 0
x(22_348) 0
x(22_349) 0
x(22_350) 0
x(22_351) 0
x(22_352) 0
x(22_353) 0
x(22_354) 0
x(22_355) 0
x(22_356) 0
x(22_357) 1
x(22_358) 0
x(22_359) 0
x(22_360) 0
x(22_361) 0
x(22_362) 0
x(23_363) 0
x(23_364) 0
x(23_365) 1
x(23_366) 0
x(23_367) 0
x(23_368) 0
x(23_369) 0
x(23_370) 0
x(23_371) 0
x(23_372) 0
x(23_373) 0
x(23_374) 0
x(23_375) 0
x(23_376) 0
x(23_377) 0
x(23_378) 0
x(23_379) 0
x(23_380) 0
x(23_381) 0
x(24_382) 0
x(24_383) 0
x(24_384) 1
x(24_385) 0
x(24_386) 0
x(24_387) 0
x(24_388) 0
x(24_389) 0
x(24_390) 0
x(24_391) 0
x(24_392) 0
x(24_393) 0
x(24_394) 0
x(24_395) 0
x(24_396) 0
x(24_397) 0
x(24_398) 0
x(25_399) 0
x(25_400) 0
x(25_401) 0
x(25_402) 0
x(25_403) 0
x(25_404) 0
x(25_405) 0
x(25_406) 0
x(25_407) 0
x(25_408) 0
x(25_409) 0
x(25_410) 0
x(25_411) 0
x(25_412) 1
x(25_413) 0
x(25_414) 0
x(25_415) 0
x(25_416) 0
x(25_417) 0
x(26_418) 0
x(26_419) 0
x(26_420) 0
x(26_421) 1
x(26_422) 0
x(26_423) 0
x(26_424) 0
x(26_425) 0
x(26_426) 0
x(26_427) 0
x(26_428) 0
x(27_429) 0
x(27_430) 0
x(27_431) 0
x(27_432) 0
x(27_433) 0
x(27_434) 0
x(27_435) 1
x(27_436) 0
x(27_437) 0
x(27_438) 0
x(27_439) 0
x(27_440) 0
x(27_441) 0
x(27_442) 0
x(27_443) 0
x(27_444) 0
x(27_445) 0
x(27_446) 0
x(27_447) 0
x(27_448) 0
x(28_449) 0
x(28_450) 0
x(28_451) 0
x(28_452) 0
x(28_453) 0
x(28_454) 0
x(28_455) 0
x(28_456) 0
x(28_457) 0
x(28_458) 0
x(28_459) 0
x(28_460) 0
x(28_461) 1
x(28_462) 0
x(28_463) 0
x(29_464) 1
x(29_465) 0
x(29_466) 0
x(29_467) 0
x(29_468) 0
x(29_469) 0
x(29_470) 0
x(29_471) 0
x(29_472) 0
x(29_473) 0
x(29_474) 0
x(29_475) 0
x(29_476) 0
x(29_477) 0
x(30_478) 0
x(30_479) 0
x(30_480) 0
x(30_481) 0
x(30_482) 0
x(30_483) 0
x(30_484) 0
x(30_485) 0
x(30_486) 0
x(30_487) 0
x(30_488) 0
x(30_489) 1
x(30_490) 0
x(30_491) 0
x(31_492) 0
x(31_493) 0
x(31_494) 0
x(31_495) 1
x(31_496) 0
x(31_497) 0
x(31_498) 0
x(31_499) 0
x(31_500) 0
x(31_501) 0
x(31_502) 0
x(31_503) 0
x(31_504) 0
x(31_505) 0
x(32_506) 0
x(32_507) 0
x(32_508) 0
x(32_509) 0
x(32_510) 0
x(32_511) 0
x(32_512) 0
x(32_513) 0
x(32_514) 0
x(32_515) 0
x(32_516) 0
x(32_517) 0
x(32_518) 0
x(32_519) 0
x(32_520) 0
x(32_521) 1
x(33_522) 0
x(33_523) 0
x(33_524) 0
x(33_525) 0
x(33_526) 0
x(33_527) 0
x(33_528) 0
x(33_529) 0
x(33_530) 1
x(33_531) 0
x(33_532) 0
x(33_533) 0
x(34_534) 0
x(34_535) 0
x(34_536) 0
x(34_537) 1
x(34_538) 0
x(34_539) 0
x(34_540) 0
x(34_541) 0
x(34_542) 0
x(34_543) 0
x(34_544) 0
x(34_545) 0
x(34_546) 0
x(34_547) 0
x(34_548) 0
x(34_549) 0
x(34_550) 0
x(34_551) 0
x(35_552) 0
x(35_553) 0
x(35_554) 0
x(35_555) 0
x(35_556) 1
x(35_557) 0
x(35_558) 0
x(35_559) 0
x(35_560) 0
x(35_561) 0
x(35_562) 0
x(35_563) 0
x(35_564) 0
x(36_565) 0
x(36_566) 0
x(36_567) 0
x(36_568) 0
x(36_569) 0
x(36_570) 0
x(36_571) 0
x(36_572) 0
x(36_573) 0
x(36_574) 0
x(36_575) 0
x(36_576) 0
x(36_577) 0
x(36_578) 0
x(36_579) 1
x(36_580) 0
x(36_581) 0
x(37_582) 1
x(37_583) 0
x(37_584) 0
x(37_585) 0
x(37_586) 0
x(37_587) 0
x(37_588) 0
x(37_589) 0
x(37_590) 0
x(37_591) 0
x(37_592) 0
x(37_593) 0
x(37_594) 0
x(37_595) 0
x(37_596) 0
x(37_597) 0
x(37_598) 0
x(38_599) 0
x(38_600) 0
x(38_601) 0
x(38_602) 0
x(38_603) 0
x(38_604) 0
x(38_605) 0
x(38_606) 0
x(38_607) 0
x(38_608) 0
x(38_609) 0
x(38_610) 0
x(38_611) 0
x(38_612) 0
x(38_613) 0
x(38_614) 1
x(39_615) 0
x(39_616) 0
x(39_617) 0
x(39_618) 0
x(39_619) 0
x(39_620) 0
x(39_621) 0
x(39_622) 0
x(39_623) 0
x(39_624) 0
x(39_625) 0
x(39_626) 0
x(39_627) 0
x(39_628) 0
x(39_629) 0
x(39_630) 1
x(39_631) 0
x(39_632) 0
x(40_633) 0
x(40_634) 0
x(40_635) 0
x(40_636) 0
x(40_637) 1
x(40_638) 0
x(40_639) 0
x(40_640) 0
x(40_641) 0
x(40_642) 0
x(40_643) 0
x(40_644) 0
x(40_645) 0
x(40_646) 0
x(40_647) 0
x(40_648) 0
x(41_649) 0
x(41_650) 0
x(41_651) 0
x(41_652) 0
x(41_653) 0
x(41_654) 0
x(41_655) 1
x(41_656) 0
x(41_657) 0
x(41_658) 0
x(41_659) 0
x(41_660) 0
x(42_661) 0
x(42_662) 0
x(42_663) 0
x(42_664) 0
x(42_665) 0
x(42_666) 0
x(42_667) 0
x(42_668) 0
x(42_669) 1
x(42_670) 0
x(42_671) 0
x(42_672) 0
x(42_673) 0
x(42_674) 0
x(42_675) 0
x(42_676) 0
x(42_677) 0
x(42_678) 0
x(43_679) 0
x(43_680) 1
x(43_681) 0
x(43_682) 0
x(43_683) 0
x(43_684) 0
x(43_685) 0
x(43_686) 0
x(43_687) 0
x(43_688) 0
x(43_689) 0
x(43_690) 0
x(43_691) 0
x(43_692) 0
x(44_693) 0
x(44_694) 0
x(44_695) 0
x(44_696) 0
x(44_697) 0
x(44_698) 0
x(44_699) 1
x(44_700) 0
x(44_701) 0
x(44_702) 0
x(44_703) 0
x(44_704) 0
x(44_705) 0
x(44_706) 0
x(44_707) 0
x(45_708) 1
x(45_709) 0
x(45_710) 0
x(45_711) 0
x(45_712) 0
x(45_713) 0
x(45_714) 0
x(45_715) 0
x(45_716) 0
x(45_717) 0
x(45_718) 0
x(45_719) 0
x(45_720) 0
x(46_721) 0
x(46_722) 0
x(46_723) 0
x(46_724) 0
x(46_725) 0
x(46_726) 0
x(46_727) 0
x(46_728) 1
x(46_729) 0
x(46_730) 0
x(46_731) 0
x(46_732) 0
x(46_733) 0
x(46_734) 0
x(46_735) 0
x(46_736) 0
x(47_737) 0
x(47_738) 0
x(47_739) 0
x(47_740) 0
x(47_741) 0
x(47_742) 0
x(47_743) 0
x(47_744) 1
x(47_745) 0
x(47_746) 0
x(47_747) 0
x(47_748) 0
x(47_749) 0
x(47_750) 0
x(47_751) 0
x(47_752) 0
x(48_753) 0
x(48_754) 0
x(48_755) 0
x(48_756) 0
x(48_757) 0
x(48_758) 0
x(48_759) 0
x(48_760) 1
x(48_761) 0
x(48_762) 0
x(48_763) 0
x(48_764) 0
x(48_765) 0
x(48_766) 0
x(49_767) 0
x(49_768) 0
x(49_769) 0
x(49_770) 0
x(49_771) 0
x(49_772) 0
x(49_773) 0
x(49_774) 0
x(49_775) 0
x(49_776) 0
x(49_777) 1
x(49_778) 0
x(49_779) 0
x(49_780) 0
x(49_781) 0
x(49_782) 0
x(49_783) 0
x(49_784) 0
x(49_785) 0
x(50_786) 0
x(50_787) 0
x(50_788) 0
x(50_789) 0
x(50_790) 0
x(50_791) 0
x(50_792) 1
x(50_793) 0
x(50_794) 0
x(50_795) 0
x(50_796) 0
x(51_797) 0
x(51_798) 0
x(51_799) 0
x(51_800) 0
x(51_801) 0
x(51_802) 0
x(51_803) 0
x(51_804) 0
x(51_805) 0
x(51_806) 0
x(51_807) 0
x(51_808) 0
x(51_809) 0
x(51_810) 1
x(51_811) 0
x(51_812) 0
x(51_813) 0
x(51_814) 0
x(51_815) 0
x(51_816) 0
x(52_817) 0
x(52_818) 1
x(52_819) 0
x(52_820) 0
x(52_821) 0
x(52_822) 0
x(52_823) 0
x(52_824) 0
x(52_825) 0
x(52_826) 0
x(52_827) 0
x(52_828) 0
x(52_829) 0
x(52_830) 0
x(52_831) 0
x(52_832) 0
x(52_833) 0
x(52_834) 0
x(53_835) 0
x(53_836) 0
x(53_837) 0
x(53_838) 0
x(53_839) 0
x(53_840) 0
x(53_841) 0
x(53_842) 0
x(53_843) 0
x(53_844) 0
x(53_845) 1
x(53_846) 0
x(53_847) 0
x(53_848) 0
x(53_849) 0
x(53_850) 0
x(53_851) 0
x(53_852) 0
x(53_853) 0
x(53_854) 0
x(54_855) 0
x(54_856) 0
x(54_857) 0
x(54_858) 0
x(54_859) 0
x(54_860) 0
x(54_861) 0
x(54_862) 0
x(54_863) 0
x(54_864) 0
x(54_865) 0
x(54_866) 0
x(54_867) 0
x(54_868) 1
x(54_869) 0
x(54_870) 0
x(54_871) 0
x(54_872) 0
x(54_873) 0
x(55_874) 0
x(55_875) 1
x(55_876) 0
x(55_877) 0
x(55_878) 0
x(55_879) 0
x(55_880) 0
x(55_881) 0
x(55_882) 0
x(55_883) 0
x(55_884) 0
x(55_885) 0
x(55_886) 0
x(55_887) 0
x(55_888) 0
x(55_889) 0
x(55_890) 0
x(55_891) 0
x(55_892) 0
x(56_893) 0
x(56_894) 0
x(56_895) 0
x(56_896) 0
x(56_897) 0
x(56_898) 0
x(56_899) 0
x(56_900) 0
x(56_901) 0
x(56_902) 0
x(56_903) 0
x(56_904) 0
x(56_905) 1
x(56_906) 0
x(56_907) 0
x(57_908) 0
x(57_909) 0
x(57_910) 0
x(57_911) 0
x(57_912) 0
x(57_913) 0
x(57_914) 0
x(57_915) 0
x(57_916) 0
x(57_917) 0
x(57_918) 1
x(57_919) 0
x(58_920) 0
x(58_921) 0
x(58_922) 0
x(58_923) 1
x(58_924) 0
x(58_925) 0
x(58_926) 0
x(58_927) 0
x(58_928) 0
x(58_929) 0
x(58_930) 0
x(58_931) 0
x(59_932) 0
x(59_933) 0
x(59_934) 0
x(59_935) 0
x(59_936) 0
x(59_937) 0
x(59_938) 0
x(59_939) 0
x(59_940) 0
x(59_941) 0
x(59_942) 0
x(59_943) 0
x(59_944) 0
x(59_945) 0
x(59_946) 0
x(59_947) 0
x(59_948) 1
x(59_949) 0
x(59_950) 0
x(59_951) 0
x(60_952) 0
x(60_953) 0
x(60_954) 1
x(60_955) 0
x(60_956) 0
x(60_957) 0
x(60_958) 0
x(60_959) 0
x(60_960) 0
x(60_961) 0
x(60_962) 0
x(60_963) 0
x(60_964) 0
x(61_965) 0
x(61_966) 0
x(61_967) 0
x(61_968) 0
x(61_969) 0
x(61_970) 0
x(61_971) 1
x(61_972) 0
x(61_973) 0
x(61_974) 0
x(61_975) 0
x(62_976) 0
x(62_977) 0
x(62_978) 0
x(62_979) 0
x(62_980) 0
x(62_981) 0
x(62_982) 0
x(62_983) 1
x(62_984) 0
x(62_985) 0
x(62_986) 0
x(62_987) 0
x(62_988) 0
x(63_989) 1
x(63_990) 0
x(63_991) 0
x(63_992) 0
x(63_993) 0
x(63_994) 0
x(63_995) 0
x(63_996) 0
x(63_997) 0
x(63_998) 0
x(63_999) 0
x(63_1000) 0
x(63_1001) 0
x(63_1002) 0
x(63_1003) 0
x(63_1004) 0
x(63_1005) 0
x(63_1006) 0
x(63_1007) 0
x(63_1008) 0
x(64_1009) 0
x(64_1010) 0
x(64_1011) 0
x(64_1012) 0
x(64_1013) 0
x(64_1014) 0
x(64_1015) 0
x(64_1016) 0
x(64_1017) 0
x(64_1018) 0
x(64_1019) 1
x(64_1020) 0
x(64_1021) 0
x(64_1022) 0
x(64_1023) 0
x(65_1024) 0
x(65_1025) 0
x(65_1026) 0
x(65_1027) 1
x(65_1028) 0
x(65_1029) 0
x(65_1030) 0
x(65_1031) 0
x(65_1032) 0
x(65_1033) 0
x(66_1034) 0
x(66_1035) 0
x(66_1036) 0
x(66_1037) 0
x(66_1038) 0
x(66_1039) 0
x(66_1040) 0
x(66_1041) 1
x(66_1042) 0
x(66_1043) 0
x(66_1044) 0
x(66_1045) 0
x(66_1046) 0
x(66_1047) 0
x(66_1048) 0
x(66_1049) 0
x(66_1050) 0
x(66_1051) 0
x(66_1052) 0
x(67_1053) 0
x(67_1054) 0
x(67_1055) 0
x(67_1056) 0
x(67_1057) 0
x(67_1058) 0
x(67_1059) 0
x(67_1060) 0
x(67_1061) 0
x(67_1062) 0
x(67_1063) 0
x(67_1064) 0
x(67_1065) 0
x(67_1066) 0
x(67_1067) 0
x(67_1068) 0
x(67_1069) 0
x(67_1070) 0
x(67_1071) 1
x(68_1072) 0
x(68_1073) 0
x(68_1074) 1
x(68_1075) 0
x(68_1076) 0
x(68_1077) 0
x(68_1078) 0
x(68_1079) 0
x(68_1080) 0
x(68_1081) 0
x(68_1082) 0
x(68_1083) 0
x(68_1084) 0
x(69_1085) 0
x(69_1086) 0
x(69_1087) 0
x(69_1088) 1
x(69_1089) 0
x(69_1090) 0
x(69_1091) 0
x(69_1092) 0
x(69_1093) 0
x(69_1094) 0
x(69_1095) 0
x(69_1096) 0
x(69_1097) 0
x(69_1098) 0
x(69_1099) 0
x(69_1100) 0
x(70_1101) 0
x(70_1102) 0
x(70_1103) 0
x(70_1104) 0
x(70_1105) 0
x(70_1106) 0
x(70_1107) 1
x(70_1108) 0
x(70_1109) 0
x(70_1110) 0
x(71_1111) 0
x(71_1112) 0
x(71_1113) 0
x(71_1114) 1
x(71_1115) 0
x(71_1116) 0
x(71_1117) 0
x(71_1118) 0
x(71_1119) 0
x(71_1120) 0
x(72_1121) 0
x(72_1122) 0
x(72_1123) 1
x(72_1124) 0
x(72_1125) 0
x(72_1126) 0
x(72_1127) 0
x(72_1128) 0
x(72_1129) 0
x(72_1130) 0
x(72_1131) 0
x(72_1132) 0
x(72_1133) 0
x(72_1134) 0
x(72_1135) 0
x(72_1136) 0
x(72_1137) 0
x_1_0 3.0209213852323592e+02
s_1_0 0
z_1_0 0
x_1_1 3.0495138667884748e+02
s_1_1 0
z_1_1 0
x_1_2 3.0631951505830511e+02
s_1_2 0
z_1_2 0
x_1_3 3.0503548144130036e+02
s_1_3 0
z_1_3 0
x_1_4 0
s_1_4 7.2956522641470656e-01
z_1_4 1
x_1_5 3.0178187202475965e+02
s_1_5 0
z_1_5 0
x_1_6 0
s_1_6 9.3252438121999148e-01
z_1_6 1
x_1_7 3.0293411225266755e+02
s_1_7 0
z_1_7 0
x_1_8 3.0657669666316360e+02
s_1_8 0
z_1_8 0
x_1_9 3.0523720875196159e+02
s_1_9 0
z_1_9 0
x_1_10 302.20137443766
s_1_10 0
z_1_10 0
x_1_11 0
s_1_11 1.1291514152253512e+00
z_1_11 1
x_1_12 0
s_1_12 7.3415649776870850e-01
z_1_12 1
x_1_13 3.0241251534223557e+02
s_1_13 0
z_1_13 0
x_1_14 3.0353475051745772e+02
s_1_14 0
z_1_14 0
x_1_15 3.0562731879530475e+02
s_1_15 0
z_1_15 0
x_1_16 3.0516502017702442e+02
s_1_16 0
z_1_16 0
x_1_17 0
s_1_17 4.7280308022163808e-01
z_1_17 1
x_1_18 3.0361013769544661e+02
s_1_18 0
z_1_18 0
x_1_19 3.0273507184069604e+02
s_1_19 0
z_1_19 0
x_1_20 0
s_1_20 1.0964460010873154e+00
z_1_20 1
x_1_21 3.0444227274972945e+02
s_1_21 0
z_1_21 0
x_1_22 0
s_1_22 2.2381945163942873e-01
z_1_22 1
x_1_23 0
s_1_23 8.0095716106006876e-01
z_1_23 1
x_1_24 0
s_1_24 1.0350426999575575e+00
z_1_24 1
x_1_25 3.0213007329870015e+02
s_1_25 0
z_1_25 0
x_1_26 3.0391365517280065e+02
s_1_26 0
z_1_26 0
x_1_27 0
s_1_27 7.6725162281218218e-01
z_1_27 1
x_1_28 0
s_1_28 3.7487184768542647e-01
z_1_28 1
x_1_29 3.0357933068089187e+02
s_1_29 0
z_1_29 0
x_1_30 3.0607745602028444e+02
s_1_30 0
z_1_30 0
x_1_31 0
s_1_31 5.3154926325805718e-01
z_1_31 1
x_1_32 0
s_1_32 9.7523111070040613e-01
z_1_32 1
x_1_33 3.0519672469561920e+02
s_1_33 0
z_1_33 0
x_1_34 3.0452658194606192e+02
s_1_34 0
z_1_34 0
x_1_35 302.634905166924
s_1_35 0
z_1_35 0
x_1_36 3.0688490183278918e+02
s_1_36 0
z_1_36 0
x_1_37 3.0630006742663682e+02
s_1_37 0
z_1_37 0
x_1_38 0
s_1_38 1.0485827418742701e+00
z_1_38 1
x_1_39 0
s_1_39 4.7546309028984979e-01
z_1_39 1
x_1_40 3.0344482196494937e+02
s_1_40 0
z_1_40 0
x_1_41 0
s_1_41 8.2160016335546970e-01
z_1_41 1
x_1_42 0
s_1_42 6.0065025434596464e-01
z_1_42 1
x_1_43 3.0558484338549897e+02
s_1_43 0
z_1_43 0
x_1_44 0
s_1_44 9.9893470527604222e-01
z_1_44 1
x_1_45 0
s_1_45 7.8566101862816140e-01
z_1_45 1
x_1_46 0
s_1_46 0.7841257477412
z_1_46 1
x_1_47 3.0454119857959449e+02
s_1_47 0
z_1_47 0
x_1_48 3.0401294792117551e+02
s_1_48 0
z_1_48 0
x_1_49 3.0212588603701442e+02
s_1_49 0
z_1_49 0
x_1_50 0
s_1_50 1.1906398284481838e+00
z_1_50 1
x_1_51 2.9743992674909532e+02
s_1_51 0
z_1_51 0
x_1_52 0
s_1_52 2.6943631086032838e-01
z_1_52 1
x_1_53 0
s_1_53 6.1943740961578442e-01
z_1_53 1
x_1_54 3.0403919323533773e+02
s_1_54 0
z_1_54 0
x_1_55 0
s_1_55 2.9329710087040439e-01
z_1_55 1
x_1_56 3.0281092546321452e+02
s_1_56 0
z_1_56 0
x_1_57 0
s_1_57 6.0545141343027353e-01
z_1_57 1
x_1_58 304.141189225018
s_1_58 0
z_1_58 0
x_1_59 0
s_1_59 1.1047460242407396e+00
z_1_59 1
x_1_60 3.0672637529450003e+02
s_1_60 0
z_1_60 0
x_1_61 3.0440538900764659e+02
s_1_61 0
z_1_61 0
x_1_62 3.0318373194150627e+02
s_1_62 0
z_1_62 0
x_1_63 3.0591063777729869e+02
s_1_63 0
z_1_63 0
x_1_64 3.0217664222791791e+02
s_1_64 0
z_1_64 0
x_1_65 0
s_1_65 8.4699267585529014e-01
z_1_65 1
x_1_66 3.0643833594955504e+02
s_1_66 0
z_1_66 0
x_1_67 0
s_1_67 4.7943246556678787e-01
z_1_67 1
x_1_68 3.0246278175292537e+02
s_1_68 0
z_1_68 0
x_1_69 3.0639483633765485e+02
s_1_69 0
z_1_69 0
x_1_70 0
s_1_70 5.0921978597034467e-01
z_1_70 1
x_1_71 3.0208721163682640e+02
s_1_71 0
z_1_71 0
x_1_72 3.0421148381847888e+02
s_1_72 0
z_1_72 0
x_1_73 3.0567896998673677e+02
s_1_73 0
z_1_73 0
x_1_74 3.0167631239537150e+02
s_1_74 0
z_1_74 0
x_1_75 0
s_1_75 8.0715659837005660e-01
z_1_75 1
x_1_76 3.0411902537569404e+02
s_1_76 0
z_1_76 0
x_1_77 3.0300439798645675e+02
s_1_77 0
z_1_77 0
x_1_78 3.0491208334057592e+02
s_1_78 0
z_1_78 0
x_1_79 0
s_1_79 6.4559909608215094e-01
z_1_79 1
x_1_80 3.0536825302173384e+02
s_1_80 0
z_1_80 0
x_1_81 3.0356600095145404e+02
s_1_81 0
z_1_81 0
x_1_82 2.9819928593281657e+02
s_1_82 0
z_1_82 0
x_1_83 3.0279596729669720e+02
s_1_83 0
z_1_83 0
x_1_84 0
s_1_84 7.3381965703447349e-01
z_1_84 1
x_1_85 3.0673776944627753e+02
s_1_85 0
z_1_85 0
x_1_86 3.0490733354445547e+02
s_1_86 0
z_1_86 0
x_1_87 3.0561414299323224e+02
s_1_87 0
z_1_87 0
x_1_88 3.0284108588146046e+02
s_1_88 0
z_1_88 0
x_1_89 0
s_1_89 1.0407148070516996e+00
z_1_89 1
x_1_90 3.0670137418247759e+02
s_1_90 0
z_1_90 0
x_1_91 3.0602318548411131e+02
s_1_91 0
z_1_91 0
x_1_92 0
s_1_92 7.3851799662224948e-01
z_1_92 1
x_1_93 0
s_1_93 5.4322433308698237e-01
z_1_93 1
x_1_94 0
s_1_94 1.0322654248448089e+00
z_1_94 1
x_1_95 0
s_1_95 8.5149268928216770e-01
z_1_95 1
x_1_96 0
s_1_96 0.661789301680983
z_1_96 1
x_1_97 3.0544451693445444e+02
s_1_97 0
z_1_97 0
x_1_98 3.0388778219395317e+02
s_1_98 0
z_1_98 0
x_1_99 3.0657048185274471e+02
s_1_99 0
z_1_99 0
x_1_100 0
s_1_100 1.2435708860866725e+00
z_1_100 1
x_1_101 3.0224332131259143e+02
s_1_101 0
z_1_101 0
x_1_102 3.0306241707527079e+02
s_1_102 0
z_1_102 0
x_1_103 0
s_1_103 1.2016258848016150e+00
z_1_103 1
x_1_104 3.0259200245607644e+02
s_1_104 0
z_1_104 0
x_1_105 3.0637556497248079e+02
s_1_105 0
z_1_105 0
x_1_106 3.0255935706570745e+02
s_1_106 0
z_1_106 0
x_1_107 0
s_1_107 6.7888638989825267e-01
z_1_107 1
x_1_108 0
s_1_108 5.5496952519752085e-01
z_1_108 1
x_1_109 0
s_1_109 8.0439560700324364e-01
z_1_109 1
x_1_110 0
s_1_110 4.9085090437438339e-01
z_1_110 1
x_1_111 0
s_1_111 5.3354572386888321e-01
z_1_111 1
x_1_112 3.0330051793111488e+02
s_1_112 0
z_1_112 0
x_1_113 3.0367974396329373e+02
s_1_113 0
z_1_113 0
x_1_114 0
s_1_114 8.8772696512751281e-01
z_1_114 1
x_1_115 0
s_1_115 5.8395326064783148e-01
z_1_115 1
x_1_116 3.0047962773963809e+02
s_1_116 0
z_1_116 0
x_1_117 3.0665386477019638e+02
s_1_117 0
z_1_117 0
x_1_118 0
s_1_118 9.5811729552224278e-01
z_1_118 1
x_1_119 3.0208138417452574e+02
s_1_119 0
z_1_119 0
x_1_120 3.0673231113702059e+02
s_1_120 0
z_1_120 0
x_1_121 3.0294663348328322e+02
s_1_121 0
z_1_121 0
x_1_122 3.0598536667646840e+02
s_1_122 0
z_1_122 0
x_1_123 0
s_1_123 9.9078836257103831e-01
z_1_123 1
x_1_124 3.0237383373873308e+02
s_1_124 0
z_1_124 0
x_1_125 3.0568794955313206e+02
s_1_125 0
z_1_125 0
x_1_126 3.0535879571735859e+02
s_1_126 0
z_1_126 0
x_1_127 3.0257455035159364e+02
s_1_127 0
z_1_127 0
x_1_128 0
s_1_128 6.1846147524556727e-01
z_1_128 1
x_1_129 3.0661051768157631e+02
s_1_129 0
z_1_129 0
x_1_130 0
s_1_130 9.9041650004801340e-01
z_1_130 1
x_1_131 3.0293474903097376e+02
s_1_131 0
z_1_131 0
x_1_132 3.0310679506510496e+02
s_1_132 0
z_1_132 0
x_1_133 0
s_1_133 0.594590361986775
z_1_133 1
x_1_134 0
s_1_134 5.7556133557227440e-01
z_1_134 1
x_1_135 0
s_1_135 8.5489032766781747e-01
z_1_135 1
x_1_136 3.0314458543062210e+02
s_1_136 0
z_1_136 0
x_1_137 0
s_1_137 8.7231391406385228e-01
z_1_137 1
x_1_138 0
s_1_138 5.3244355514470953e-01
z_1_138 1
x_1_139 0
s_1_139 4.1480927309021354e-01
z_1_139 1
x_1_140 3.0214804490562528e+02
s_1_140 0
z_1_140 0
x_1_141 0
s_1_141 0.883429387002252
z_1_141 1
x_1_142 0
s_1_142 6.0978240589611232e-01
z_1_142 1
x_1_143 3.0611586159002036e+02
s_1_143 0
z_1_143 0
x_1_144 3.0662966114934534e+02
s_1_144 0
z_1_144 0
x_1_145 0
s_1_145 7.7801436600566376e-01
z_1_145 1
x_1_146 3.0361528058908880e+02
s_1_146 0
z_1_146 0
x_1_147 3.0565555045939982e+02
s_1_147 0
z_1_147 0
x_1_148 0
s_1_148 6.0330132786475588e-01
z_1_148 1
x_1_149 2.9999498836882412e+02
s_1_149 0
z_1_149 0
x_1_150 0
s_1_150 0.397265435416557
z_1_150 1
x_1_151 3.0255400744429789e+02
s_1_151 0
z_1_151 0
x_1_152 3.0613579829502851e+02
s_1_152 0
z_1_152 0
x_1_153 3.0420383742451668e+02
s_1_153 0
z_1_153 0
x_1_154 3.0620930629316717e+02
s_1_154 0
z_1_154 0
x_1_155 304.471888942644
s_1_155 0
z_1_155 0
x_1_156 3.0518314921669662e+02
s_1_156 0
z_1_156 0
x_1_157 3.0567348174192011e+02
s_1_157 0
z_1_157 0
x_1_158 3.0620113122370094e+02
s_1_158 0
z_1_158 0
x_1_159 0
s_1_159 9.2355642345501110e-01
z_1_159 1
x_2_0 1.8544178789227922e+05
